c ren 1 -> 1
c ren 2 -> 2
c ren 3 -> 3
c ren 4 -> 4
c ren 5 -> 5
c ren 6 -> 6
c ren 7 -> 7
c ren 8 -> 8
c ren 9 -> 9
c ren 10 -> 10
c ren 11 -> 11
c ren 12 -> 12
c ren 13 -> 13
c ren 14 -> 14
c ren 15 -> 15
c ren 16 -> 16
c ren 17 -> 17
c ren 18 -> 18
c ren 20 -> 19
c ren 21 -> 20
c ren 22 -> 21
c ren 23 -> 22
c ren 24 -> 23
c ren 26 -> 24
c ren 33 -> 25
c ren 44 -> 26
c ren 45 -> 27
c ren 48 -> 28
c ren 52 -> 29
c ren 55 -> 30
c ren 58 -> 31
c ren 62 -> 32
c ren 65 -> 33
p cnf 33 66
a 1 2 3 4 5 6 7 8 9 10 11 12 13 14 15 16 17 18 0
d 19 12 14 0
d 20 2 5 0
d 21 2 5 0
d 22 15 16 0
d 23 17 18 0
e 24 25 26 27 28 29 30 31 32 33 0
2 5 -7 -24 0
-2 -5 7 24 0
2 -5 7 -24 0
-2 5 -7 24 0
-2 5 7 -24 0
-2 -5 -7 -24 0
2 5 7 24 0
2 -5 -7 24 0
-1 2 -4 8 10 11 -24 -25 -26 0
1 -4 -7 -8 -10 -11 -24 -25 -26 0
1 -2 -4 -5 -8 -10 -11 -24 -25 -26 0
-1 4 -7 -8 -10 -11 -24 -25 -26 0
-1 2 4 7 -8 10 -11 -24 -25 -26 0
1 -4 5 7 -8 10 -11 -24 -25 -26 0
3 -6 -13 27 0
3 -6 9 -25 0
-3 6 -9 25 0
-3 6 9 -25 0
-3 -6 9 25 0
-3 6 -13 27 0
25 26 0
3 6 -9 -25 0
1 -2 4 -5 8 -10 11 -24 -25 -26 0
-1 -2 -4 -5 8 -10 11 -24 -25 -26 0
1 2 4 8 10 11 -24 -25 -26 0
24 26 0
1 4 5 8 10 11 -24 -25 -26 0
-1 -4 5 8 10 11 -24 -25 -26 0
-1 -2 4 -5 -8 -10 -11 -24 -25 -26 0
3 6 9 25 0
3 6 13 27 0
-3 -6 -9 -25 0
-3 -6 13 27 0
3 -6 -9 25 0
10 -18 -23 26 -27 -28 -29 -30 -31 -32 33 0
-12 -13 28 0
12 13 28 0
-9 -10 -18 23 26 -27 -28 -29 -30 -31 -32 33 0
-11 -15 -20 29 0
15 20 29 0
11 15 29 0
9 -18 -23 26 -27 -28 -29 -30 -31 -32 33 0
-16 -21 30 0
16 21 30 0
9 10 -18 -19 26 -27 -28 -29 -30 -31 -32 33 0
-14 -22 31 0
14 22 31 0
-9 10 -18 19 26 -27 -28 -29 -30 -31 -32 33 0
-13 -17 -22 32 0
17 22 32 0
13 17 32 0
9 -10 -18 19 26 -27 -28 -29 -30 -31 -32 33 0
3 -33 0
6 -33 0
-3 -6 33 0
-7 -8 -11 18 20 26 -27 -28 -29 -30 -31 -32 -33 0
-9 -10 -18 -19 26 -27 -28 -29 -30 -31 -32 33 0
-7 8 11 18 20 26 -27 -28 -29 -30 -31 -32 -33 0
7 -8 -11 18 -20 26 -27 -28 -29 -30 -31 -32 -33 0
10 18 -19 26 -27 -28 -29 -30 -31 -32 -33 0
-10 18 19 26 -27 -28 -29 -30 -31 -32 -33 0
7 8 11 18 -20 26 -27 -28 -29 -30 -31 -32 -33 0
7 -8 -11 -18 -20 26 -27 -28 -29 -30 -31 -32 33 0
-7 8 11 -18 20 26 -27 -28 -29 -30 -31 -32 33 0
-7 -8 -11 -18 20 26 -27 -28 -29 -30 -31 -32 33 0
7 8 11 -18 -20 26 -27 -28 -29 -30 -31 -32 33 0
